CMD:
./solvers/bin/cadical --plain --no-reduce -t 1600 ./data/cnfs//qspiflash_dualflexpress_divthree-p085/qspiflash_dualflexpress_divthree-p085.37.cnf

c --- [ banner ] -------------------------------------------------------------
c 
c CaDiCaL SAT Solver
c Copyright (c) 2016-2024
c A. Biere, M. Fleury, N. Froleyks, K. Fazekas, F. Pollitt, T. Faller
c JKU Linz, University of Freiburg, TU Wien
c 
c Version 2.1.3 5296d3d2a9bf48c154ab2acb5e44625776d821bf
c g++ (Gentoo 12.3.1_p20230526 p2) 12.3.1 20230526 -Wall -Wextra -O3 -DNDEBUG
c Sat Aug 9 07:26:21 PDT 2025 Linux cedar2.int.cedar.computecanada.ca 5.14.0-362.24.2.el9_3.x86_64 x86_64
c 
c --- [ limit ] --------------------------------------------------------------
c 
c setting time limit to 1600 seconds real time (due to '-t 1600')
c 
c --- [ parsing input ] ------------------------------------------------------
c 
c reading DIMACS file from './data/cnfs//qspiflash_dualflexpress_divthree-p085/qspiflash_dualflexpress_divthree-p085.37.cnf'
c opening file to read './data/cnfs//qspiflash_dualflexpress_divthree-p085/qspiflash_dualflexpress_divthree-p085.37.cnf'
c found 'p cnf 112502 327746' header
c parsed 327746 clauses in 0.05 seconds process time
c 
c --- [ options ] ------------------------------------------------------------
c 
c   --compact=false                (different from default 'true')
c   --decompose=false              (different from default 'true')
c   --deduplicate=false            (different from default 'true')
c   --elim=false                   (different from default 'true')
c   --probe=false                  (different from default 'true')
c   --reduce=false                 (different from default 'true')
c   --subsume=false                (different from default 'true')
c   --ternary=false                (different from default 'true')
c   --transred=false               (different from default 'true')
c   --vivify=false                 (different from default 'true')
c 
c --- [ solving ] ------------------------------------------------------------
c 
c time measured in process time since initialization
c 
c  seconds  reductions  redundant  irredundant
c         MB    restarts       trail       variables
c          level   conflicts       glue          remaining
c 
c *  0.05 53  0 0   0    0    0  0% 0 308538 100017 89%
c {  0.07 55  0 0   0    0    0  0% 0 308538 100017 89%
c i  0.07 55 15 0   0   11    6 12% 1 308538 100016 89%
c i  0.07 55 13 0   0   13    7 12% 1 308538 99843 89%
c i  0.08 55 22 0   0   20   13 17% 2 308538 99831 89%
c i  0.08 55 23 0   0   21   13 17% 2 308538 99821 89%
c i  0.09 55 55 0   0   50   38 22% 22 308538 99763 89%
c i  0.13 55 39 0   4  399  365 27% 6 308538 99351 88%
c i  0.13 55 39 0   4  401  366 27% 6 308538 99337 88%
c i  0.13 55 39 0   4  423  383 27% 6 308538 99336 88%
c i  0.14 56 38 0   8  535  488 28% 6 308538 99330 88%
c i  0.17 56 48 0  18  911  815 30% 5 308538 99326 88%
c i  0.18 56 46 0  19  976  868 29% 5 308538 99320 88%
c }  0.18 56 47 0  19 1003  891 29% 5 308538 99320 88%
c [  0.18 56  0 0  19 1003  891  0% 0 308538 99320 88%
c O  0.20 56 916 0  19 1004  892 88% 5 308538 99320 88%
c i  0.20 56 905 0  19 1012  899 89% 5 308538 99316 88%
c ]  0.43 56 425 0  20 3003 2714 48% 8 308538 99316 88%
c {  0.43 56 47 0  20 3003 2714 29% 5 308538 99316 88%
c F  0.43 56 47 0  20 3005 2716 29% 5 308538 99316 88%
c 
c  seconds  reductions  redundant  irredundant
c         MB    restarts       trail       variables
c          level   conflicts       glue         remaining
c 
c i  0.45 56 47 0  31 3164 2865 28% 5 308538 99312 88%
c i  0.46 56 46 0  44 3275 2963 28% 5 308538 99242 88%
c i  0.46 56 46 0  44 3277 2964 28% 5 308538 99233 88%
c i  0.51 56 43 0  91 3581 3221 27% 5 308538 99228 88%
c i  0.52 56 42 0  97 3640 3268 27% 5 308538 99224 88%
c i  0.52 56 42 0  97 3641 3268 27% 5 308538 99220 88%
c i  0.53 56 41 0 102 3671 3292 26% 5 308538 99217 88%
c i  0.54 56 41 0 102 3775 3372 26% 5 308538 99203 88%
c i  0.54 56 41 0 102 3782 3378 26% 5 308538 99169 88%
c i  0.54 56 41 0 102 3800 3392 27% 5 308538 99129 88%
c i  0.54 56 41 0 102 3801 3392 27% 5 308538 99120 88%
c i  0.54 56 41 0 102 3802 3392 27% 5 308538 99112 88%
c i  0.54 56 41 0 102 3839 3424 27% 5 308538 99085 88%
c i  0.54 56 41 0 102 3842 3426 27% 5 308538 99072 88%
c i  0.54 56 41 0 102 3844 3427 27% 5 308538 99060 88%
c i  0.54 56 42 0 102 3882 3462 27% 5 308538 99053 88%
c i  0.55 56 42 0 102 3940 3509 27% 5 308538 99046 88%
c i  0.59 57 40 0 102 4298 3815 28% 5 308538 99045 88%
c i  0.62 57 40 0 127 4499 3988 27% 5 308538 98995 88%
c i  0.62 57 40 0 127 4501 3989 27% 5 308538 98970 88%
c 
c  seconds  reductions  redundant  irredundant
c         MB    restarts       trail       variables
c          level   conflicts       glue         remaining
c 
c i  0.67 57 39 0 160 4947 4384 27% 5 308538 98952 88%
c i  0.71 57 38 0 166 5205 4624 27% 5 308538 98938 88%
c i  0.71 57 38 0 166 5206 4624 27% 5 308538 98924 88%
c i  0.72 57 38 0 174 5276 4683 27% 5 308538 98884 88%
c i  0.76 57 37 0 185 5494 4877 27% 5 308538 98880 88%
c i  0.83 57 35 0 199 5996 5305 26% 5 308538 98877 88%
c i  0.84 57 35 0 199 6002 5310 26% 5 308538 98873 88%
c #  0.84 57 35 0 199 6007 5315 26% 5 308538 98872 88%
c i  0.85 57 35 0 201 6053 5356 26% 5 308538 98868 88%
c i  0.85 57 35 0 201 6066 5359 26% 5 308538 98828 88%
c i  0.93 57 34 0 218 6485 5730 26% 5 308538 98827 88%
c i  0.94 57 34 0 218 6522 5765 26% 5 308538 98823 88%
c i  0.98 57 33 0 231 6605 5839 26% 5 308538 98815 88%
c i  1.05 57 33 0 259 7005 6170 26% 5 308538 98807 88%
c }  1.05 57 33 0 259 7005 6170 26% 5 308538 98807 88%
c [  1.05 57 425 0 259 7005 6170 48% 8 308538 98807 88%
c i  1.10 57 380 0 260 7254 6368 46% 7 308538 98597 88%
c i  1.17 57 346 0 260 7488 6557 44% 7 308538 98596 88%
c i  1.18 57 345 0 260 7492 6559 44% 7 308538 98595 88%
c i  1.29 57 302 0 260 7855 6827 41% 7 308538 98010 87%
c 
c  seconds   reductions  redundant  irredundant
c         MB     restarts       trail       variables
c           level   conflicts       glue         remaining
c 
c ]  1.38 57 274 0 260 8176 7073 39% 7 308538 92864 83%
c 0  1.38 57 274 0 260 8176 7073 39% 7 308538 92864 83%
c 
c --- [ result ] -------------------------------------------------------------
c 
s UNSATISFIABLE
c 
c --- [ run-time profiling ] -------------------------------------------------
c 
c process time taken by individual solving procedures
c (percentage relative to process time for solving)
c 
c         1.33   99.99% search
c         0.73   54.84% unstable
c         0.58   43.21% stable
c         0.05    3.61% parse
c         0.03    1.93% lucky
c         0.00    0.00% simplify
c   =================================
c         1.33   96.48% solve
c 
c last line shows process time for solving
c (percentage relative to total process time)
c 
c --- [ statistics ] ---------------------------------------------------------
c 
c chronological:              3117        38.12 %  of conflicts
c conflicts:                  8176      6142.56    per second
c decisions:                 20954     15742.55    per second
c fixed:                     19604        17.43 %  of all variables
c learned:                    7783        95.19 %  per conflict
c learned_lits:             205932       100.00 %  learned literals
c minimized:                     0         0.00 %  learned literals
c shrunken:                  32794        15.92 %  learned literals
c minishrunken:              37503        18.21 %  learned literals
c otfs:                         65         0.80 %  of conflict
c propagations:           20614899        15.49 M  per second
c rephased:                      3      2725.33    interval
c restarts:                    260        31.45    interval
c stabilizing:                   2        38.78 %  of conflicts
c subsumed:                    657         0.21 %  of all clauses
c strengthened:                 65         0.02 %  of all clauses
c 
c seconds are measured in process time for solving
c 
c --- [ resources ] ----------------------------------------------------------
c 
c total process time since initialization:         1.38    seconds
c total real time since initialization:            1.39    seconds
c maximum resident set size of process:           55.10    MB
c 
c --- [ shutting down ] ------------------------------------------------------
c 
c exit 20
